StringID Type x y demand ReadyTime DueDate ServiceTime
D0 d 40 50.0 0.0 0.0 240.0 0.0
Dt d 40 50.0 0.0 0.0 240.0 0.0
C11 c3 8 40.0 40.0 76.0 126.0 10.0
C22 c3 40 15.0 40.0 96.0 146.0 10.0
C55 c3 30 60.0 16.0 15.0 116.0 10.0
C82 c2 27 43.0 9.0 111.0 147.0 10.0
C36 c2 65 85.0 40.0 59.0 114.0 10.0
P0 p 40 18.0 0.0 0.0 240.0 45.0
param CV := 200.0 nan nan nan nan
param V := 1.0 nan nan nan nan
